15	53
0	1	72
0	2	27
0	5	16
0	6	94
0	8	19
0	10	99
0	14	24
1	2	33
1	3	17
1	4	60
1	6	54
1	8	82
1	11	81
1	14	10
2	3	90
2	5	38
2	6	94
2	7	65
2	8	25
2	9	95
2	12	13
2	13	42
3	5	71
3	6	10
3	7	68
3	9	34
3	10	20
4	6	25
4	7	14
4	10	19
4	12	92
5	6	8
5	8	32
5	9	13
5	12	64
5	13	71
5	14	18
6	7	26
6	9	53
6	13	30
7	8	5
7	11	89
7	13	52
8	11	29
9	10	37
9	14	23
10	12	17
10	13	25
10	14	94
11	12	90
11	14	74
12	14	96
13	14	67
